g3 0 1 0	# problem d7n5R1R6d01d1
 5 6 1 0 1	# vars, constraints, objectives, ranges, eqns
 4 1	# nonlinear constraints, objectives
 0 0	# network constraints: nonlinear, linear
 5 5 5	# nonlinear vars in constraints, objectives, both
 0 0 0 1	# linear network variables; functions; arith, flags
 0 0 0 0 0	# discrete variables: binary, integer, nonlinear (b,c,o)
 30 5	# nonzeros in Jacobian, gradients
 0 0	# max name lengths: constraints, variables
 0 0 0 0 0	# common exprs: b,c,o,c1,o1
b
0 0.92 2.62
0 0.28 2.1
0 0.42 2.15
0 0.5 2.34
0 0.12 2.51
r
2 35.045
2 110.73
2 199.028
2 450.325
4 24.237
2 19.94
C0
o2
o2
n5.24
v1
v1
C1
o54
7
o2
o2
n7.19
v1
v1
o2
o2
o2
n3.22
v0
v0
v4
o2
o2
o2
n9.34
v0
v1
v4
o2
o2
o2
n1.15
v0
v2
v3
o2
o2
o2
n3.92
v1
v1
v3
o2
o2
o2
n1.59
v1
v4
v4
o2
o2
o2
n8.88
v2
v2
v3
C2
o54
13
o2
o2
n2.05
v1
v1
o16
o2
o2
o2
n3.13
v0
v0
v4
o2
o2
o2
n2.57
v0
v1
v4
o2
o2
o2
n4.56
v0
v2
v3
o2
o2
o2
n9.68
v1
v1
v3
o16
o2
o2
o2
n3.89
v1
v4
v4
o2
o2
o2
n7.78
v2
v2
v3
o2
o2
o2
o2
n2.57
v0
v0
v3
v3
o2
o2
o2
o2
n4.16
v0
v1
v2
v3
o2
o2
o2
o2
n3.34
v0
v2
v3
v3
o2
o2
o2
o2
n9.48
v1
v2
v4
v4
o2
o2
o2
o2
n7.92
v2
v2
v2
v3
o2
o2
o2
o2
n10
v2
v3
v4
v4
C3
o54
24
o2
o2
n9.98
v1
v1
o2
o2
o2
n4.73
v0
v0
v4
o2
o2
o2
n1.01
v0
v1
v4
o2
o2
o2
n6.53
v0
v2
v3
o2
o2
o2
n5.55
v1
v1
v3
o2
o2
o2
n0.98
v1
v4
v4
o2
o2
o2
n4.25
v2
v2
v3
o2
o2
o2
o2
n7.45
v0
v0
v3
v3
o2
o2
o2
o2
n4.02
v0
v1
v2
v3
o16
o2
o2
o2
o2
n0.1
v0
v2
v3
v3
o2
o2
o2
o2
n9.14
v1
v2
v4
v4
o2
o2
o2
o2
n9.96
v2
v2
v2
v3
o2
o2
o2
o2
n2.91
v2
v3
v4
v4
o2
o2
o2
o2
o2
n2.89
v0
v0
v0
v3
v3
o2
o2
o2
o2
o2
n1.65
v0
v0
v1
v3
v4
o2
o2
o2
o2
o2
n7.39
v0
v0
v2
v2
v2
o2
o2
o2
o2
o2
n7.35
v0
v0
v2
v4
v4
o2
o2
o2
o2
o2
n1.3
v0
v0
v4
v4
v4
o2
o2
o2
o2
o2
n0.67
v0
v1
v2
v4
v4
o2
o2
o2
o2
o2
n1.53
v0
v2
v3
v3
v4
o16
o2
o2
o2
o2
o2
n0.92
v1
v1
v1
v2
v4
o2
o2
o2
o2
o2
n5.82
v1
v1
v2
v3
v3
o2
o2
o2
o2
o2
n4.39
v1
v2
v2
v3
v4
o2
o2
o2
o2
o2
n0.61
v2
v4
v4
v4
v4
C4
n0
C5
n0
O0 0
o54
79
o2
o2
n6.68
v1
v1
o2
o2
o2
n7.71
v0
v0
v4
o2
o2
o2
n9.53
v0
v1
v4
o2
o2
o2
n3.73
v0
v2
v3
o2
o2
o2
n2.04
v1
v1
v3
o2
o2
o2
n7.04
v1
v4
v4
o2
o2
o2
n9.34
v2
v2
v3
o2
o2
o2
o2
n2.45
v0
v0
v3
v3
o2
o2
o2
o2
n3.25
v0
v1
v2
v3
o16
o2
o2
o2
o2
n2.81
v0
v2
v3
v3
o2
o2
o2
o2
n6.77
v1
v2
v4
v4
o2
o2
o2
o2
n1.67
v2
v2
v2
v3
o2
o2
o2
o2
n0.68
v2
v3
v4
v4
o2
o2
o2
o2
o2
n5.13
v0
v0
v0
v3
v3
o16
o2
o2
o2
o2
o2
n2.54
v0
v0
v1
v3
v4
o2
o2
o2
o2
o2
n5.63
v0
v0
v2
v2
v2
o2
o2
o2
o2
o2
n3.51
v0
v0
v2
v4
v4
o2
o2
o2
o2
o2
n5.57
v0
v0
v4
v4
v4
o2
o2
o2
o2
o2
n3.18
v0
v1
v2
v4
v4
o2
o2
o2
o2
o2
n3.5
v0
v2
v3
v3
v4
o2
o2
o2
o2
o2
n7.82
v1
v1
v1
v2
v4
o2
o2
o2
o2
o2
n0.69
v1
v1
v2
v3
v3
o2
o2
o2
o2
o2
n2.32
v1
v2
v2
v3
v4
o2
o2
o2
o2
v2
v4
v4
v4
v4
o2
o2
o2
o2
o2
o2
n1.08
v0
v0
v0
v0
v2
v3
o2
o2
o2
o2
o2
o2
n1.71
v0
v0
v0
v1
v1
v1
o2
o2
o2
o2
o2
o2
n8.28
v0
v0
v0
v1
v1
v4
o16
o2
o2
o2
o2
o2
o2
n8.24
v0
v0
v0
v1
v2
v4
o2
o2
o2
o2
o2
o2
n2.75
v0
v0
v0
v2
v4
v4
o2
o2
o2
o2
o2
o2
n0.52
v0
v0
v2
v2
v2
v3
o16
o2
o2
o2
o2
o2
o2
n7.8
v0
v0
v2
v4
v4
v4
o2
o2
o2
o2
o2
o2
n3.82
v0
v0
v3
v3
v4
v4
o2
o2
o2
o2
o2
o2
n1.24
v0
v1
v1
v1
v1
v4
o2
o2
o2
o2
o2
o2
n1.89
v0
v1
v1
v1
v4
v4
o2
o2
o2
o2
o2
o2
n6.1
v0
v1
v1
v2
v3
v3
o2
o2
o2
o2
o2
o2
n5.17
v0
v1
v2
v2
v2
v3
o2
o2
o2
o2
o2
o2
n7.05
v0
v1
v2
v2
v3
v4
o2
o2
o2
o2
o2
o2
n1.95
v0
v1
v2
v3
v3
v3
o16
o2
o2
o2
o2
o2
o2
n3.19
v1
v1
v1
v2
v2
v2
o2
o2
o2
o2
o2
o2
n5.19
v1
v1
v1
v2
v2
v3
o16
o2
o2
o2
o2
o2
o2
n2.19
v1
v1
v2
v3
v4
v4
o2
o2
o2
o2
o2
o2
n2.94
v1
v1
v3
v4
v4
v4
o2
o2
o2
o2
o2
o2
n6.37
v2
v2
v2
v2
v2
v2
o2
o2
o2
o2
o2
o2
n5.06
v2
v2
v2
v2
v4
v4
o2
o2
o2
o2
o2
o2
n5.83
v2
v2
v4
v4
v4
v4
o2
o2
o2
o2
o2
o2
n4.15
v2
v3
v3
v3
v4
v4
o16
o2
o2
o2
o2
o2
o2
n9.06
v2
v4
v4
v4
v4
v4
o2
o2
o2
o2
o2
o2
o2
n3.37
v0
v0
v0
v0
v1
v2
v2
o2
o2
o2
o2
o2
o2
o2
n6.26
v0
v0
v0
v0
v2
v3
v3
o2
o2
o2
o2
o2
o2
o2
n9.16
v0
v0
v0
v1
v2
v3
v4
o2
o2
o2
o2
o2
o2
o2
n5.81
v0
v0
v0
v2
v2
v2
v2
o2
o2
o2
o2
o2
o2
o2
n1.45
v0
v0
v0
v3
v4
v4
v4
o2
o2
o2
o2
o2
o2
o2
n9
v0
v0
v1
v1
v1
v1
v4
o2
o2
o2
o2
o2
o2
o2
n9.34
v0
v0
v1
v1
v1
v2
v3
o2
o2
o2
o2
o2
o2
o2
n3.59
v0
v0
v2
v2
v2
v3
v4
o16
o2
o2
o2
o2
o2
o2
o2
n4.98
v0
v0
v2
v2
v4
v4
v4
o2
o2
o2
o2
o2
o2
o2
n1.24
v0
v0
v2
v3
v3
v4
v4
o2
o2
o2
o2
o2
o2
o2
n3.53
v0
v0
v3
v4
v4
v4
v4
o16
o2
o2
o2
o2
o2
o2
o2
n9.35
v0
v0
v4
v4
v4
v4
v4
o2
o2
o2
o2
o2
o2
o2
n1.86
v0
v1
v1
v1
v1
v1
v4
o2
o2
o2
o2
o2
o2
o2
n2.49
v0
v1
v1
v1
v1
v2
v4
o2
o2
o2
o2
o2
o2
o2
n4.06
v0
v1
v1
v3
v3
v4
v4
o2
o2
o2
o2
o2
o2
o2
n3.79
v0
v1
v2
v2
v2
v3
v4
o2
o2
o2
o2
o2
o2
o2
n6.28
v0
v1
v3
v3
v4
v4
v4
o2
o2
o2
o2
o2
o2
o2
n1.53
v0
v2
v2
v2
v4
v4
v4
o2
o2
o2
o2
o2
o2
o2
n8.96
v0
v2
v3
v3
v3
v3
v3
o2
o2
o2
o2
o2
o2
o2
n1.4
v1
v1
v1
v1
v4
v4
v4
o2
o2
o2
o2
o2
o2
o2
n9.09
v1
v1
v1
v2
v2
v4
v4
o16
o2
o2
o2
o2
o2
o2
o2
n9.52
v1
v1
v1
v3
v3
v3
v3
o2
o2
o2
o2
o2
o2
o2
n0.43
v1
v1
v1
v4
v4
v4
v4
o2
o2
o2
o2
o2
o2
o2
n6.76
v1
v1
v2
v2
v4
v4
v4
o2
o2
o2
o2
o2
o2
o2
n4.4
v1
v2
v3
v4
v4
v4
v4
o16
o2
o2
o2
o2
o2
o2
o2
n9.47
v2
v2
v2
v2
v2
v2
v3
o2
o2
o2
o2
o2
o2
o2
n9.57
v2
v2
v2
v3
v3
v3
v4
o2
o2
o2
o2
o2
o2
o2
n7.08
v2
v2
v3
v3
v3
v4
v4
o2
o2
o2
o2
o2
o2
o2
n2.43
v2
v3
v3
v3
v3
v3
v3
o2
o2
o2
o2
o2
o2
o2
n1.85
v2
v3
v3
v3
v3
v3
v4
o16
o2
o2
o2
o2
o2
o2
o2
n7.36
v3
v3
v3
v4
v4
v4
v4
o2
o2
o2
o2
o2
o2
o2
n0.98
v3
v4
v4
v4
v4
v4
v4
k4
6
12
18
24
J0 5
0 -5.83
1 9.81
2 6.17
3 5.23
4 8.3
J1 5
0 9.82
1 3.17
2 3.58
3 -1.3
4 1.38
J2 5
0 5.52
1 7.22
2 0.19
3 5.93
4 1.84
J3 5
0 9.01
1 7.86
2 5.59
3 1.11
4 5.55
J4 5
0 0.7
1 8.92
2 1.13
3 1.91
4 6.25
J5 5
0 1.87
1 4.5
2 4.77
3 2.54
4 1.17
G0 5
0 9.68
1 3.63
2 8.98
3 7.43
4 0.86
